20 1 3
489 552 798 893 63 975 799 378 131 132 607 895 123 178 455 117 253 167 644 375 
131 461 285 972 498 956 597 397 531 71 846 20 623 644 913 685 618 711 62 749 
842 668 644 965 846 98 81 99 265 725 474 395 185 758 367 683 714 964 79 245 
350 9250 2640 6570 5680 1760 3410 1860 8860 4030 9350 7280 700 5790 6930 9160 6760 7740 140 9410 
53830
